%nproc=24
%chk=H2O.Co.2.Corrin.H2O.chk
%mem=7000mb
# tpsstpss/6-31G(d) opt integral=ultrafine scf=tight

H2O.Co.2.Corrin.H2O

1 2 
O	-0.168044	0.184101	-2.318220
H	0.111099	-0.653763	-2.743419
H	0.455511	0.859866	-2.658158
Co	-0.031915	0.000008	0.000057
N	-1.329301	-1.417829	-0.032024
C	-1.043401	-2.778286	0.032019
C	-2.314775	-3.601875	0.147711
C	-3.435925	-2.557919	-0.025721
C	-2.684783	-1.240394	-0.015774
C	0.224044	-3.330597	0.014411
C	1.404856	-2.550560	-0.093561
N	1.365193	-1.224109	-0.144617
C	2.729933	-0.669047	-0.368068
C	3.672225	-1.803530	0.079283
C	2.828336	-3.074140	-0.201567
C	2.729949	0.669008	0.368039
N	1.365221	1.224095	0.144596
C	1.404904	2.550546	0.093557
C	2.828394	3.074099	0.201551
C	3.672258	1.803476	-0.079316
C	-3.321926	0.000035	0.000025
C	-2.684766	1.240450	0.015819
N	-1.329276	1.417858	0.032056
C	-1.043350	2.778309	-0.032070
C	-2.314710	3.601888	-0.147970
C	-3.435862	2.558000	0.025847
C	0.224103	3.330601	-0.014434
H	2.850567	-0.469115	-1.455682
H	2.850585	0.469078	1.455654
H	-4.416417	0.000042	0.000035
H	0.317715	4.418512	-0.077155
H	0.317637	-4.418512	0.077086
H	3.874967	1.715656	-1.163254
H	4.639017	1.796493	0.448652
H	-4.196001	-2.594947	0.773625
H	3.027715	3.902505	-0.499707
H	-2.358298	4.092238	-1.138085
H	3.010935	3.468655	1.221232
H	-4.196187	2.595011	-0.773260
H	3.874952	-1.715708	1.163218
H	4.638979	-1.796568	-0.448697
H	3.010861	-3.468707	-1.221247
H	3.027647	-3.902544	0.499696
H	-2.344228	4.406447	0.606580
H	-2.344326	-4.406144	-0.607151
H	-3.975541	2.680358	0.983851
H	-2.358330	-4.092611	1.137632
H	-3.975919	-2.680179	-0.983556
O	-0.167928	-0.184232	2.318235
H	0.456117	-0.859550	2.658163
H	0.110555	0.653815	2.743508

